Route 1: 0 66 67 36 73 100 16 0
Route 2: 0 26 65 5 10 6 20 63 86 0
Route 3: 0 57 46 80 25 32 43 0
Route 4: 0 13 38 53 75 98 34 89 0
Route 5: 0 8 54 41 74 95 49 76 0
Route 6: 0 51 44 47 27 21 72 22 0
Route 7: 0 2 17 30 90 12 97 4 0
Route 8: 0 52 60 96 84 18 79 92 0
Route 9: 0 70 69 62 40 50 48 93 45 9 56 1 0
Route 10: 0 68 42 28 94 31 19 78 83 85 29 77 0
Route 11: 0 61 14 11 81 71 7 64 55 39 24 88 91 0
Route 12: 0 37 58 87 59 35 82 3 15 99 33 23 0
